Minimize
  obj: x0 + x1 + x2 + x3 + x4

Subject To
  c0: x0 + x2 + x3 + x4 = 23
  c1: x1 + x2 + x4 = 21
  c2: x0 + x2 = 21
  c3: x1 + x3 = 17

Bounds
  x0 >= 0
  x1 >= 0
  x2 >= 0
  x3 >= 0
  x4 >= 0

Generals
  x0 x1 x2 x3 x4

End
